%SETS
JOBS     = 1..3;
MACHINES = 1..5;
SPEED    = 1;

time               = array3d(JOBS,MACHINES,1..SPEED,[68, 49, 90, 96, 44, 81, 57, 61, 93, 16, 17, 11, 84, 80, 88]);
energy             = array3d(JOBS,MACHINES,1..SPEED,[50, 61, 40, 38, 64, 44, 56, 54, 39, 85, 84, 89, 43, 44, 41]);
precedence         = array2d(JOBS,MACHINES,[2,1,4,3,0,0,3,2,4,1,4,3,1,2,0]);